641,326
736,235
844,726
776,593
586,593
744,469
317,142
826,301
947,599
677,377
657,423
639,448
699,524
799,424
850,237
826,301
771,406
657,423
628,433
351,406
597,490
927,745
1081,610
744,469
435,745
580,719
1117,723
1093,705
898,833
771,406
741,406
586,593
512,575
681,-44
927,67
681,-44
